--- Job Upstream_3.gms Start 09/17/25 10:55:22 49.6.1 55d34574 WEX-WEI x86 64bit/MS Windows
--- Applying:
    C:\GAMS\49\gmsprmNT.txt
--- GAMS Parameters defined
    Input C:\Users\ronnie\Documents\GAMS\Studio\workspace\Pyro\Upstream_3.gms
    ScrDir C:\Users\ronnie\Documents\GAMS\Studio\workspace\Pyro\225a\
    SysDir C:\GAMS\49\
    CurDir C:\Users\ronnie\Documents\GAMS\Studio\workspace\Pyro\
    LogOption 3
    Trace C:\Users\ronnie\Documents\GAMS\Studio\workspace\Pyro\_scenTrc.trc
    InputDir1 C:\Users\ronnie\Documents\GAMS\Studio\workspace\Pyro\
    TraceOpt 3
    ExecMode 0
    LstTitleLeftAligned 1
    IDCGDXInput _miro_gdxin_.gdx
    IDCGDXOutput _miro_gdxout_.gdx
Licensee: Large MUD - 20 User License                    S231215|0002AN-WIN
          Leibniz-Zentrum fuer Agrarlandschaftsforschung (ZALF) e. V.DC8734
          C:\Users\ronnie\Documents\GAMS\gamslice.txt
          License Admin: Peter Zander, Peter.Zander@zalf.de                
          The maintenance period of the license will expire on Apr 03, 2026
System information: 10 physical cores and 16 Gb memory detected
GAMS 49.6.1   Copyright (C) 1987-2025 GAMS Development. All rights reserved
--- Starting compilation
--- Upstream_3.gms(284) 3 Mb
--- call gdxdump excel_out.gdx symb=UC_lane    > UC_lane.csv
--- Upstream_3.gms(285) 3 Mb
--- call gdxdump excel_out.gdx symb=UM_lane    > UM_lane.csv
--- Upstream_3.gms(286) 3 Mb
--- call gdxdump excel_out.gdx symb=BE_radius  > BE_radius.csv
--- Upstream_3.gms(287) 3 Mb
--- call gdxdump excel_out.gdx symb=Rev_lane   > Rev_lane.csv
--- Upstream_3.gms(288) 3 Mb
--- call gdxdump excel_out.gdx symb=Cost_lane  > Cost_lane.csv
--- Upstream_3.gms(289) 3 Mb
--- call gdxdump excel_out.gdx symb=GM_lane    > GM_lane.csv
--- Starting execution: elapsed 0:00:00.620
--- Upstream_3.gms(289) 4 Mb--- Upstream_3.gms(188) 4 Mb
--- Generating LP model Upstream_B
--- Upstream_3.gms(193) 4 Mb
---   8 rows  15 columns  53 non-zeroes
--- Range statistics (absolute non-zero finite values)
--- RHS       [min, max] : [ 7.000E+02, 1.200E+03] - Zero values observed as well
--- Bound     [min, max] : [        NA,        NA] - Zero values observed as well
--- Matrix    [min, max] : [ 1.000E+00, 4.794E+01]
--- Executing CPLEX (Solvelink=2): elapsed 0:00:00.648

IBM ILOG CPLEX   49.6.1 55d34574 May 28, 2025          WEI x86 64bit/MS Window

--- GAMS/CPLEX licensed for continuous and discrete problems.
--- GMO setup time: 0.00s
--- GMO memory 0.50 Mb (peak 0.50 Mb)
--- Dictionary memory 0.00 Mb
--- Cplex 22.1.2.0 link memory 0.00 Mb (peak 0.00 Mb)
--- Starting Cplex

Version identifier: 22.1.2.0 | 2024-11-25 | 0edbb82fd
CPXPARAM_Advance                                 0
CPXPARAM_Simplex_Display                         2
CPXPARAM_MIP_Display                             4
CPXPARAM_MIP_Pool_Capacity                       0
CPXPARAM_MIP_Tolerances_AbsMIPGap                0
Tried aggregator 1 time.
LP Presolve eliminated 5 rows and 15 columns.
All rows and columns eliminated.
Presolve time = 0.00 sec. (0.01 ticks)

--- LP status (1): optimal.
--- Cplex Time: 0.00sec (det. 0.01 ticks)


Optimal solution found
Objective:         8457.532419

--- Reading solution for model Upstream_B
--- Executing after solve: elapsed 0:00:00.865
--- Upstream_3.gms(215) 4 Mb--- Upstream_3.gms(244) 4 Mb
    --- Location-aware GM report generated (Option B, labor toggles).
--- Upstream_3.gms(274) 4 Mb
--- GDX File (execute_unload) C:\Users\ronnie\Documents\GAMS\Studio\workspace\Pyro\miro_out.gdx
--- Upstream_3.gms(279) 4 Mb
--- GDX File (execute_unload) C:\Users\ronnie\Documents\GAMS\Studio\workspace\Pyro\excel_out.gdx
--- GDX File C:\Users\ronnie\Documents\GAMS\Studio\workspace\Pyro\_miro_gdxout_.gdx
*** Status: Normal completion
--- Job Upstream_3.gms Stop 09/17/25 10:55:23 elapsed 0:00:00.890
